decision_x1=[0,4];
decision_x2=[0,4];
decision_x3=[0,4];
decision_x4=[0,4];
decision_x5=[0,4];
decision_x6=[0,4];
decision_x7=[0,4];
decision_x8=[0,4];
decision_x9=[0,4];
decision_x10=[0,4];
random_y1=[0,4];
random_y2=[0,4];
random_y3=[0,4];
random_y4=[0,4];
random_y5=[0,4];
random_y6=[0,4];
random_y7=[0,4];
random_y8=[0,4];
random_y9=[0,4];
random_y10=[0,4];
constraint_x3_x2=[
0,0,83|
0,1,80|
0,2,46|
0,3,12|
0,4,74|
1,0,30|
1,1,97|
1,2,97|
1,3,90|
1,4,49|
2,0,42|
2,1,54|
2,2,84|
2,3,34|
2,4,78|
3,0,92|
3,1,88|
3,2,7.6|
3,3,2.5|
3,4,22|
4,0,45|
4,1,35|
4,2,7.4|
4,3,44|
4,4,72|
];
constraint_x4_x1=[
0,0,73|
0,1,66|
0,2,3.2|
0,3,85|
0,4,9|
1,0,32|
1,1,53|
1,2,90|
1,3,68|
1,4,13|
2,0,1.5|
2,1,96|
2,2,53|
2,3,29|
2,4,2.1|
3,0,86|
3,1,66|
3,2,33|
3,3,49|
3,4,43|
4,0,95|
4,1,94|
4,2,66|
4,3,64|
4,4,79|
];
constraint_x4_x2=[
0,0,2.8|
0,1,15|
0,2,5.1|
0,3,83|
0,4,50|
1,0,31|
1,1,82|
1,2,3.2|
1,3,1.2|
1,4,69|
2,0,97|
2,1,70|
2,2,28|
2,3,33|
2,4,48|
3,0,14|
3,1,57|
3,2,46|
3,3,19|
3,4,59|
4,0,3.5|
4,1,62|
4,2,81|
4,3,97|
4,4,39|
];
constraint_x4_x3=[
0,0,95|
0,1,18|
0,2,13|
0,3,48|
0,4,33|
1,0,24|
1,1,46|
1,2,2.8|
1,3,23|
1,4,16|
2,0,83|
2,1,99|
2,2,88|
2,3,38|
2,4,93|
3,0,54|
3,1,98|
3,2,68|
3,3,16|
3,4,81|
4,0,27|
4,1,83|
4,2,84|
4,3,26|
4,4,66|
];
constraint_x5_x1=[
0,0,6.3|
0,1,36|
0,2,66|
0,3,34|
0,4,13|
1,0,5.4|
1,1,33|
1,2,11|
1,3,36|
1,4,29|
2,0,71|
2,1,86|
2,2,36|
2,3,88|
2,4,26|
3,0,56|
3,1,2|
3,2,23|
3,3,4.5|
3,4,12|
4,0,98|
4,1,30|
4,2,76|
4,3,75|
4,4,41|
];
constraint_x5_x2=[
0,0,41|
0,1,63|
0,2,42|
0,3,87|
0,4,64|
1,0,50|
1,1,35|
1,2,18|
1,3,15|
1,4,97|
2,0,46|
2,1,67|
2,2,34|
2,3,15|
2,4,82|
3,0,7.3|
3,1,55|
3,2,25|
3,3,37|
3,4,54|
4,0,68|
4,1,87|
4,2,13|
4,3,44|
4,4,97|
];
constraint_x5_x4=[
0,0,94|
0,1,77|
0,2,40|
0,3,38|
0,4,31|
1,0,86|
1,1,41|
1,2,92|
1,3,16|
1,4,88|
2,0,47|
2,1,48|
2,2,13|
2,3,13|
2,4,61|
3,0,51|
3,1,30|
3,2,41|
3,3,15|
3,4,48|
4,0,3.4|
4,1,97|
4,2,18|
4,3,6.8|
4,4,17|
];
constraint_x6_x1=[
0,0,73|
0,1,25|
0,2,9.4|
0,3,12|
0,4,31|
1,0,84|
1,1,66|
1,2,77|
1,3,13|
1,4,23|
2,0,32|
2,1,42|
2,2,70|
2,3,53|
2,4,0.0018|
3,0,56|
3,1,50|
3,2,1.9|
3,3,84|
3,4,48|
4,0,24|
4,1,57|
4,2,15|
4,3,42|
4,4,3.1|
];
constraint_x7_x1=[
0,0,3.2|
0,1,18|
0,2,24|
0,3,48|
0,4,37|
1,0,7.8|
1,1,96|
1,2,79|
1,3,1.8|
1,4,53|
2,0,23|
2,1,87|
2,2,72|
2,3,60|
2,4,70|
3,0,58|
3,1,91|
3,2,49|
3,3,41|
3,4,27|
4,0,77|
4,1,55|
4,2,62|
4,3,32|
4,4,32|
];
constraint_x7_x6=[
0,0,14|
0,1,49|
0,2,5|
0,3,53|
0,4,42|
1,0,28|
1,1,87|
1,2,84|
1,3,37|
1,4,13|
2,0,62|
2,1,44|
2,2,38|
2,3,41|
2,4,71|
3,0,91|
3,1,35|
3,2,28|
3,3,31|
3,4,9.2|
4,0,86|
4,1,86|
4,2,41|
4,3,97|
4,4,74|
];
constraint_x8_x3=[
0,0,52|
0,1,42|
0,2,67|
0,3,19|
0,4,62|
1,0,61|
1,1,66|
1,2,13|
1,3,29|
1,4,88|
2,0,70|
2,1,0.97|
2,2,78|
2,3,23|
2,4,52|
3,0,32|
3,1,76|
3,2,98|
3,3,77|
3,4,54|
4,0,12|
4,1,50|
4,2,78|
4,3,1.1|
4,4,33|
];
constraint_x8_x4=[
0,0,67|
0,1,24|
0,2,72|
0,3,0.097|
0,4,16|
1,0,13|
1,1,80|
1,2,51|
1,3,28|
1,4,18|
2,0,32|
2,1,28|
2,2,93|
2,3,95|
2,4,90|
3,0,60|
3,1,66|
3,2,81|
3,3,53|
3,4,93|
4,0,83|
4,1,19|
4,2,45|
4,3,14|
4,4,42|
];
constraint_x8_x6=[
0,0,49|
0,1,58|
0,2,91|
0,3,92|
0,4,29|
1,0,8.8|
1,1,98|
1,2,74|
1,3,6.6|
1,4,88|
2,0,74|
2,1,19|
2,2,64|
2,3,47|
2,4,54|
3,0,31|
3,1,95|
3,2,56|
3,3,49|
3,4,1e+02|
4,0,57|
4,1,17|
4,2,10|
4,3,51|
4,4,87|
];
constraint_x8_x7=[
0,0,22|
0,1,60|
0,2,34|
0,3,44|
0,4,49|
1,0,3.4|
1,1,84|
1,2,16|
1,3,1.2|
1,4,67|
2,0,29|
2,1,46|
2,2,38|
2,3,3.3|
2,4,0.81|
3,0,85|
3,1,29|
3,2,24|
3,3,27|
3,4,50|
4,0,42|
4,1,32|
4,2,50|
4,3,96|
4,4,59|
];
constraint_x9_x3=[
0,0,81|
0,1,47|
0,2,97|
0,3,77|
0,4,18|
1,0,7|
1,1,67|
1,2,85|
1,3,60|
1,4,38|
2,0,75|
2,1,89|
2,2,80|
2,3,13|
2,4,80|
3,0,0.033|
3,1,51|
3,2,49|
3,3,12|
3,4,65|
4,0,49|
4,1,97|
4,2,14|
4,3,92|
4,4,10|
];
constraint_x9_x5=[
0,0,18|
0,1,69|
0,2,53|
0,3,57|
0,4,95|
1,0,69|
1,1,10|
1,2,96|
1,3,51|
1,4,68|
2,0,45|
2,1,69|
2,2,2.6|
2,3,41|
2,4,2.9|
3,0,41|
3,1,34|
3,2,77|
3,3,73|
3,4,95|
4,0,1.4|
4,1,80|
4,2,6.8|
4,3,99|
4,4,42|
];
constraint_x10_x1=[
0,0,18|
0,1,45|
0,2,5.9|
0,3,58|
0,4,75|
1,0,89|
1,1,44|
1,2,80|
1,3,46|
1,4,96|
2,0,66|
2,1,80|
2,2,78|
2,3,32|
2,4,47|
3,0,43|
3,1,85|
3,2,58|
3,3,2.6|
3,4,24|
4,0,17|
4,1,61|
4,2,75|
4,3,52|
4,4,57|
];
constraint_x10_x2=[
0,0,4.7|
0,1,1e+02|
0,2,85|
0,3,1e+02|
0,4,71|
1,0,7.3|
1,1,60|
1,2,99|
1,3,47|
1,4,32|
2,0,99|
2,1,73|
2,2,59|
2,3,20|
2,4,67|
3,0,30|
3,1,29|
3,2,15|
3,3,39|
3,4,92|
4,0,70|
4,1,0.65|
4,2,23|
4,3,35|
4,4,15|
];
constraint_x10_x4=[
0,0,47|
0,1,39|
0,2,42|
0,3,61|
0,4,18|
1,0,76|
1,1,29|
1,2,99|
1,3,81|
1,4,30|
2,0,95|
2,1,74|
2,2,90|
2,3,22|
2,4,18|
3,0,73|
3,1,58|
3,2,23|
3,3,6.9|
3,4,54|
4,0,77|
4,1,77|
4,2,53|
4,3,24|
4,4,93|
];
constraint_x10_x5=[
0,0,34|
0,1,25|
0,2,24|
0,3,50|
0,4,15|
1,0,57|
1,1,47|
1,2,61|
1,3,3.4|
1,4,63|
2,0,49|
2,1,23|
2,2,27|
2,3,64|
2,4,34|
3,0,21|
3,1,90|
3,2,96|
3,3,24|
3,4,12|
4,0,91|
4,1,8.1|
4,2,84|
4,3,80|
4,4,85|
];
constraint_x10_x7=[
0,0,5.5|
0,1,86|
0,2,70|
0,3,84|
0,4,82|
1,0,92|
1,1,39|
1,2,63|
1,3,40|
1,4,99|
2,0,34|
2,1,68|
2,2,79|
2,3,73|
2,4,72|
3,0,69|
3,1,13|
3,2,80|
3,3,73|
3,4,89|
4,0,90|
4,1,22|
4,2,44|
4,3,87|
4,4,37|
];
constraint_x10_x8=[
0,0,73|
0,1,57|
0,2,13|
0,3,26|
0,4,66|
1,0,78|
1,1,59|
1,2,65|
1,3,86|
1,4,68|
2,0,50|
2,1,90|
2,2,98|
2,3,54|
2,4,78|
3,0,76|
3,1,91|
3,2,20|
3,3,66|
3,4,22|
4,0,19|
4,1,63|
4,2,92|
4,3,30|
4,4,17|
];
constraint_x10_x9=[
0,0,34|
0,1,49|
0,2,72|
0,3,25|
0,4,27|
1,0,46|
1,1,91|
1,2,84|
1,3,48|
1,4,46|
2,0,90|
2,1,34|
2,2,21|
2,3,36|
2,4,99|
3,0,97|
3,1,17|
3,2,38|
3,3,2.5|
3,4,88|
4,0,26|
4,1,38|
4,2,43|
4,3,5.5|
4,4,27|
];
constraint_x1_y1=[
0,0,18|
0,1,14|
0,2,21|
0,3,68|
0,4,5.8|
1,0,70|
1,1,33|
1,2,29|
1,3,14|
1,4,1e+02|
2,0,86|
2,1,46|
2,2,90|
2,3,88|
2,4,97|
3,0,2.5|
3,1,56|
3,2,86|
3,3,70|
3,4,88|
4,0,48|
4,1,9.1|
4,2,70|
4,3,77|
4,4,74|
];
constraint_x2_y2=[
0,0,29|
0,1,23|
0,2,12|
0,3,45|
0,4,86|
1,0,12|
1,1,49|
1,2,39|
1,3,44|
1,4,8.5|
2,0,72|
2,1,18|
2,2,9.8|
2,3,78|
2,4,0.04|
3,0,26|
3,1,91|
3,2,50|
3,3,12|
3,4,54|
4,0,68|
4,1,32|
4,2,67|
4,3,91|
4,4,11|
];
constraint_x3_y3=[
0,0,57|
0,1,58|
0,2,15|
0,3,24|
0,4,65|
1,0,22|
1,1,43|
1,2,47|
1,3,26|
1,4,88|
2,0,62|
2,1,42|
2,2,41|
2,3,68|
2,4,17|
3,0,75|
3,1,67|
3,2,19|
3,3,49|
3,4,3.5|
4,0,91|
4,1,5|
4,2,41|
4,3,20|
4,4,34|
];
constraint_x4_y4=[
0,0,28|
0,1,35|
0,2,56|
0,3,96|
0,4,86|
1,0,4.2|
1,1,2.7|
1,2,53|
1,3,75|
1,4,58|
2,0,19|
2,1,65|
2,2,18|
2,3,73|
2,4,67|
3,0,62|
3,1,39|
3,2,21|
3,3,21|
3,4,66|
4,0,31|
4,1,59|
4,2,66|
4,3,82|
4,4,85|
];
constraint_x5_y5=[
0,0,15|
0,1,45|
0,2,82|
0,3,87|
0,4,52|
1,0,2.4|
1,1,71|
1,2,70|
1,3,27|
1,4,45|
2,0,55|
2,1,95|
2,2,45|
2,3,82|
2,4,6|
3,0,49|
3,1,33|
3,2,90|
3,3,75|
3,4,16|
4,0,49|
4,1,65|
4,2,26|
4,3,50|
4,4,90|
];
constraint_x6_y6=[
0,0,55|
0,1,8.1|
0,2,7|
0,3,21|
0,4,93|
1,0,1e+02|
1,1,82|
1,2,31|
1,3,0.12|
1,4,66|
2,0,78|
2,1,21|
2,2,37|
2,3,77|
2,4,9.4|
3,0,77|
3,1,19|
3,2,14|
3,3,20|
3,4,59|
4,0,83|
4,1,5.3|
4,2,47|
4,3,24|
4,4,86|
];
constraint_x7_y7=[
0,0,0.47|
0,1,48|
0,2,34|
0,3,40|
0,4,1.7|
1,0,95|
1,1,27|
1,2,43|
1,3,3.2|
1,4,52|
2,0,62|
2,1,34|
2,2,90|
2,3,11|
2,4,14|
3,0,71|
3,1,48|
3,2,66|
3,3,27|
3,4,75|
4,0,30|
4,1,37|
4,2,51|
4,3,42|
4,4,50|
];
constraint_x8_y8=[
0,0,99|
0,1,63|
0,2,18|
0,3,56|
0,4,22|
1,0,89|
1,1,35|
1,2,60|
1,3,32|
1,4,85|
2,0,8.5|
2,1,64|
2,2,76|
2,3,73|
2,4,62|
3,0,92|
3,1,59|
3,2,98|
3,3,99|
3,4,85|
4,0,35|
4,1,1.4|
4,2,88|
4,3,22|
4,4,84|
];
constraint_x9_y9=[
0,0,9.8|
0,1,96|
0,2,50|
0,3,35|
0,4,65|
1,0,54|
1,1,30|
1,2,83|
1,3,25|
1,4,39|
2,0,91|
2,1,1.5|
2,2,53|
2,3,57|
2,4,27|
3,0,58|
3,1,12|
3,2,5|
3,3,71|
3,4,57|
4,0,37|
4,1,40|
4,2,73|
4,3,33|
4,4,6.9|
];
constraint_x10_y10=[
0,0,83|
0,1,1.5|
0,2,36|
0,3,94|
0,4,38|
1,0,82|
1,1,79|
1,2,79|
1,3,2.7|
1,4,47|
2,0,12|
2,1,58|
2,2,99|
2,3,91|
2,4,6.8|
3,0,17|
3,1,44|
3,2,6.9|
3,3,10|
3,4,24|
4,0,23|
4,1,70|
4,2,81|
4,3,27|
4,4,86|
];
initial_distribution_y1=[0.098,0.18,0.32,0.23,0.17];
initial_distribution_y2=[0.13,0.31,0.23,0.21,0.11];
initial_distribution_y3=[0.072,0.28,0.19,0.42,0.031];
initial_distribution_y4=[0.15,0.27,0.28,0.24,0.064];
initial_distribution_y5=[0.097,0.36,0.38,0.12,0.046];
initial_distribution_y6=[0.09,0.15,0.57,0.035,0.16];
initial_distribution_y7=[0.037,0.48,0.18,0.25,0.052];
initial_distribution_y8=[0.22,0.19,0.28,0.11,0.21];
initial_distribution_y9=[0.075,0.058,0.13,0.29,0.44];
initial_distribution_y10=[0.058,0.074,0.43,0.27,0.16];
transition_y1=[
0.19,0.021,0.37,0.27,0.14|
0.27,0.45,0.27,0.0071,0.0076|
0.3,0.033,0.27,0.29,0.11|
0.12,0.081,0.22,0.28,0.29|
0.16,0.45,0.12,0.23,0.038|
];
transition_y2=[
0.28,0.26,0.14,0.28,0.035|
0.36,0.39,0.09,0.04,0.12|
0.27,0.048,0.21,0.26,0.21|
0.23,0.079,0.31,0.34,0.034|
0.26,0.21,0.083,0.3,0.15|
];
transition_y3=[
0.17,0.29,0.18,0.11,0.25|
0.15,0.48,0.012,0.16,0.2|
0.035,0.2,0.38,0.25,0.13|
0.36,0.25,0.036,0.3,0.048|
0.07,0.074,0.39,0.34,0.13|
];
transition_y4=[
0.15,0.25,0.11,0.24,0.25|
0.12,0.31,0.29,0.13,0.15|
0.25,0.23,0.28,0.046,0.2|
0.23,0.41,0.061,0.063,0.23|
0.19,0.29,0.099,0.038,0.38|
];
transition_y5=[
0.039,0.22,0.45,0.2,0.089|
0.18,0.075,0.28,0.16,0.3|
0.071,0.27,0.09,0.35,0.22|
0.07,0.31,0.2,0.15,0.27|
0.26,0.38,0.16,0.14,0.063|
];
transition_y6=[
0.26,0.18,0.23,0.23,0.11|
0.021,0.29,0.26,0.16,0.27|
0.31,0.16,0.22,0.22,0.082|
0.094,0.19,0.2,0.26,0.26|
0.16,0.2,0.13,0.13,0.38|
];
transition_y7=[
0.12,0.037,0.31,0.28,0.26|
0.17,0.31,0.19,0.17,0.17|
0.26,0.061,0.19,0.19,0.3|
0.054,0.021,0.33,0.43,0.17|
0.24,0.01,0.36,0.2,0.19|
];
transition_y8=[
0.27,0.24,0.059,0.21,0.23|
0.25,0.35,0.074,0.27,0.07|
0.038,0.28,0.22,0.2,0.26|
0.15,0.2,0.34,0.21,0.1|
0.38,0.11,0.098,0.18,0.24|
];
transition_y9=[
0.26,0.16,0.11,0.31,0.16|
0.13,0.15,0.2,0.25,0.28|
0.099,0.32,0.24,0.051,0.29|
0.055,0.099,0.48,0.34,0.029|
0.029,0.3,0.048,0.3,0.33|
];
transition_y10=[
0.29,0.33,0.27,0.044,0.065|
0.2,0.27,0.24,0.27,0.025|
0.19,0.21,0.24,0.25,0.11|
0.28,0.087,0.23,0.29,0.12|
0.31,0.14,0.076,0.15,0.32|
];
